src/RACER/swarm_exploration/utils/lkh_mtsp_solver/resource/amtsp3_4.atsp
NAME : pairopt
TYPE : ACVRP
DIMENSION : 8
EDGE_WEIGHT_TYPE : EXPLICIT
EDGE_WEIGHT_FORMAT : FULL_MATRIX
CAPACITY : 897
VEHICLES : 2
EDGE_WEIGHT_SECTION
100000 -100000 -100000 100000 100000 100000 100000 100000 
100000 100000 1000000 -117 4401 4250 3396 3281 
100000 1000000 100000 3771 2031 2065 119 82 
0 0 0 100000 4866 4735 3788 3699 
0 0 0 4866 100000 341 2105 2060 
0 0 0 4735 341 100000 2172 2068 
0 0 0 3788 2105 2172 100000 156 
0 0 0 3699 2060 2068 156 100000 
DEMAND_SECTION
1 0
2 0
3 0
4 65
5 395
6 343
7 238
8 154
DEPOT_SECTION
1
EOF