src/RACER/swarm_exploration/utils/lkh_mtsp_solver/resource/amtsp3_4.tour
NAME : pairopt.-194803.tour
COMMENT : Length = -194803
COMMENT : Found by LKH-3 [Keld Helsgaun] Fri Mar 28 08:32:25 2025
TYPE : TOUR
DIMENSION : 9
TOUR_SECTION
1
3
8
7
9
2
4
6
5
-1
EOF
